NAME : 08.txt
TYPE : TSP
DIMENSION : 51
EDGE_WEIGHT_TYPE : EUC_2D
NODE_COORD_SECTION
1 0 0
2 -2 -1
3 -2 -2
4 1 -4
5 1 -5
6 2 -8
7 4 -11
8 6 -17
9 6 -20
10 11 -25
11 12 -29
12 18 -34
13 21 -38
14 29 -44
15 35 -48
16 41 -53
17 48 -57
18 55 -60
19 59 -63
20 63 -65
21 70 -68
22 74 -68
23 79 -69
24 85 -70
25 87 -73
26 90 -74
27 94 -78
28 96 -80
29 97 -84
30 100 -88
31 103 -94
32 105 -96
33 107 -102
34 109 -105
35 112 -111
36 114 -113
37 116 -117
38 118 -121
39 122 -125
40 126 -128
41 129 -133
42 133 -136
43 137 -140
44 141 -144
45 143 -147
46 149 -152
47 153 -154
48 156 -156
49 161 -158
50 165 -160
51 173 -161
EOF
